benchmark_instances/dzn_benchmark_instances/benchmark_instance_9-2.dzn
% Input: sequence of points
seq_points = [|1,1
              |2,1
              |7,1
              |8,1
              |1,2
              |4,2
              |5,2
              |6,2
              |7,2
              |4,3
              |6,3
              |8,3
              |6,4
              |7,4
              |8,4
              |4,5
              |6,5
              |7,5
              |8,5
              |2,6
              |4,6
              |5,6
              |7,6
              |1,7
              |2,7
              |4,7
              |1,8
              |2,8
              |3,8
              |4,8
              |5,8
              |7,8
              |5,0
              |7,0
              |9,3
              |9,4
              |3,9
              |7,9
              |0,2
              |0,7
              |0,9
              |1,9
              |0,0
              |1,0
             |];

num_points = 44;
