benchmark_instances/lp_benchmark_instances/benchmark_instance_9-2.lp
% Input: sequence of points
point(1,1).
point(2,1).
point(7,1).
point(8,1).
point(1,2).
point(4,2).
point(5,2).
point(6,2).
point(7,2).
point(4,3).
point(6,3).
point(8,3).
point(6,4).
point(7,4).
point(8,4).
point(4,5).
point(6,5).
point(7,5).
point(8,5).
point(2,6).
point(4,6).
point(5,6).
point(7,6).
point(1,7).
point(2,7).
point(4,7).
point(1,8).
point(2,8).
point(3,8).
point(4,8).
point(5,8).
point(7,8).
point(5,0).
point(7,0).
point(9,3).
point(9,4).
point(3,9).
point(7,9).
point(0,2).
point(0,7).
point(0,9).
point(1,9).
point(0,0).
point(1,0).
